p cnf 430 1488
-191 -35 0
-191 -122 0
-191 187 0
-191 -64 0
-191 148 0
191 35 122 -187 64 -148 0
-192 33 0
-192 26 0
-192 149 0
-192 -160 0
-192 -112 0
192 -33 -26 -149 160 112 0
-193 97 0
-193 171 0
-193 129 0
-193 187 0
-193 -91 0
193 -97 -171 -129 -187 91 0
-194 76 0
-194 20 0
-194 -118 0
-194 -145 0
-194 -13 0
194 -76 -20 118 145 13 0
-195 117 0
-195 -103 0
-195 141 0
-195 -161 0
-195 149 0
195 -117 103 -141 161 -149 0
191 192 193 194 195 0
-196 -65 0
-196 180 0
-196 91 0
-196 -161 0
-196 31 0
196 65 -180 -91 161 -31 0
-197 -104 0
-197 -109 0
-197 142 0
-197 122 0
-197 8 0
197 104 109 -142 -122 -8 0
-198 -100 0
-198 -84 0
-198 -28 0
-198 64 0
-198 9 0
198 100 84 28 -64 -9 0
-199 -36 0
-199 -76 0
-199 112 0
-199 89 0
-199 25 0
199 36 76 -112 -89 -25 0
-200 43 0
-200 -11 0
-200 21 0
-200 -57 0
-200 -39 0
200 -43 11 -21 57 39 0
196 197 198 199 200 0
-201 -67 0
-201 89 0
-201 41 0
-201 34 0
-201 -152 0
201 67 -89 -41 -34 152 0
-202 -35 0
-202 75 0
-202 140 0
-202 178 0
-202 96 0
202 35 -75 -140 -178 -96 0
-203 -47 0
-203 158 0
-203 38 0
-203 119 0
-203 124 0
203 47 -158 -38 -119 -124 0
-204 37 0
-204 -17 0
-204 -1 0
-204 156 0
-204 57 0
204 -37 17 1 -156 -57 0
-205 -9 0
-205 74 0
-205 174 0
-205 -177 0
-205 72 0
205 9 -74 -174 177 -72 0
201 202 203 204 205 0
-206 -160 0
-206 124 0
-206 -156 0
-206 -63 0
-206 -154 0
206 160 -124 156 63 154 0
-207 -85 0
-207 110 0
-207 -159 0
-207 -108 0
-207 64 0
207 85 -110 159 108 -64 0
-208 -11 0
-208 140 0
-208 149 0
-208 54 0
-208 -103 0
208 11 -140 -149 -54 103 0
-209 81 0
-209 -72 0
-209 87 0
-209 90 0
-209 187 0
209 -81 72 -87 -90 -187 0
-210 -20 0
-210 49 0
-210 155 0
-210 55 0
-210 171 0
210 20 -49 -155 -55 -171 0
206 207 208 209 210 0
-211 100 0
-211 -189 0
-211 -118 0
-211 167 0
-211 -67 0
211 -100 189 118 -167 67 0
-212 84 0
-212 -66 0
-212 -115 0
-212 -114 0
-212 -56 0
212 -84 66 115 114 56 0
-213 -14 0
-213 -128 0
-213 167 0
-213 -15 0
-213 -46 0
213 14 128 -167 15 46 0
-214 -93 0
-214 -18 0
-214 -5 0
-214 154 0
-214 45 0
214 93 18 5 -154 -45 0
-215 123 0
-215 174 0
-215 -155 0
-215 -85 0
-215 10 0
215 -123 -174 155 85 -10 0
211 212 213 214 215 0
-216 -78 0
-216 -117 0
-216 123 0
-216 -40 0
-216 -33 0
216 78 117 -123 40 33 0
-217 -24 0
-217 25 0
-217 -167 0
-217 -73 0
-217 21 0
217 24 -25 167 73 -21 0
-218 -119 0
-218 27 0
-218 -73 0
-218 -85 0
-218 -171 0
218 119 -27 73 85 171 0
-219 -175 0
-219 115 0
-219 33 0
-219 141 0
-219 -53 0
219 175 -115 -33 -141 53 0
-220 -168 0
-220 23 0
-220 -48 0
-220 -130 0
-220 -86 0
220 168 -23 48 130 86 0
216 217 218 219 220 0
-221 -69 0
-221 17 0
-221 -4 0
-221 -137 0
-221 -162 0
221 69 -17 4 137 162 0
-222 -116 0
-222 80 0
-222 -159 0
-222 89 0
-222 121 0
222 116 -80 159 -89 -121 0
-223 156 0
-223 181 0
-223 95 0
-223 -92 0
-223 91 0
223 -156 -181 -95 92 -91 0
-224 -136 0
-224 151 0
-224 186 0
-224 174 0
-224 153 0
224 136 -151 -186 -174 -153 0
-225 -10 0
-225 -166 0
-225 69 0
-225 -96 0
-225 -182 0
225 10 166 -69 96 182 0
221 222 223 224 225 0
-226 122 0
-226 -100 0
-226 -87 0
-226 -136 0
-226 -107 0
226 -122 100 87 136 107 0
-227 -75 0
-227 -93 0
-227 -170 0
-227 -172 0
-227 -44 0
227 75 93 170 172 44 0
-228 47 0
-228 -2 0
-228 -50 0
-228 -85 0
-228 -28 0
228 -47 2 50 85 28 0
-229 -66 0
-229 -51 0
-229 59 0
-229 -52 0
-229 185 0
229 66 51 -59 52 -185 0
-230 66 0
-230 187 0
-230 -142 0
-230 49 0
-230 119 0
230 -66 -187 142 -49 -119 0
226 227 228 229 230 0
-231 42 0
-231 121 0
-231 161 0
-231 -7 0
-231 11 0
231 -42 -121 -161 7 -11 0
-232 156 0
-232 166 0
-232 102 0
-232 61 0
-232 126 0
232 -156 -166 -102 -61 -126 0
-233 92 0
-233 -134 0
-233 59 0
-233 65 0
-233 183 0
233 -92 134 -59 -65 -183 0
-234 71 0
-234 -66 0
-234 -14 0
-234 151 0
-234 93 0
234 -71 66 14 -151 -93 0
-235 181 0
-235 20 0
-235 113 0
-235 -18 0
-235 78 0
235 -181 -20 -113 18 -78 0
231 232 233 234 235 0
-236 -50 0
-236 30 0
-236 100 0
-236 -153 0
-236 150 0
236 50 -30 -100 153 -150 0
-237 14 0
-237 -117 0
-237 -59 0
-237 -152 0
-237 176 0
237 -14 117 59 152 -176 0
-238 -95 0
-238 -67 0
-238 -112 0
-238 96 0
-238 -36 0
238 95 67 112 -96 36 0
-239 -54 0
-239 -108 0
-239 -102 0
-239 -27 0
-239 185 0
239 54 108 102 27 -185 0
-240 70 0
-240 -85 0
-240 -136 0
-240 167 0
-240 -99 0
240 -70 85 136 -167 99 0
236 237 238 239 240 0
-241 62 0
-241 142 0
-241 -12 0
-241 -97 0
-241 10 0
241 -62 -142 12 97 -10 0
-242 76 0
-242 58 0
-242 -125 0
-242 114 0
-242 61 0
242 -76 -58 125 -114 -61 0
-243 -147 0
-243 -161 0
-243 129 0
-243 -123 0
-243 169 0
243 147 161 -129 123 -169 0
-244 -56 0
-244 -172 0
-244 -186 0
-244 -55 0
-244 -1 0
244 56 172 186 55 1 0
-245 11 0
-245 -43 0
-245 154 0
-245 -139 0
-245 171 0
245 -11 43 -154 139 -171 0
241 242 243 244 245 0
-246 -130 0
-246 -20 0
-246 -34 0
-246 -62 0
-246 23 0
246 130 20 34 62 -23 0
-247 154 0
-247 131 0
-247 176 0
-247 13 0
-247 79 0
247 -154 -131 -176 -13 -79 0
-248 -130 0
-248 -173 0
-248 -75 0
-248 137 0
-248 -45 0
248 130 173 75 -137 45 0
-249 -169 0
-249 -107 0
-249 -167 0
-249 57 0
-249 -99 0
249 169 107 167 -57 99 0
-250 -147 0
-250 -62 0
-250 181 0
-250 43 0
-250 -79 0
250 147 62 -181 -43 79 0
246 247 248 249 250 0
-251 -182 0
-251 31 0
-251 190 0
-251 -62 0
-251 -118 0
251 182 -31 -190 62 118 0
-252 -131 0
-252 -139 0
-252 -73 0
-252 148 0
-252 -60 0
252 131 139 73 -148 60 0
-253 66 0
-253 29 0
-253 1 0
-253 113 0
-253 -43 0
253 -66 -29 -1 -113 43 0
-254 12 0
-254 -36 0
-254 -142 0
-254 -82 0
-254 -147 0
254 -12 36 142 82 147 0
-255 -139 0
-255 -69 0
-255 102 0
-255 -20 0
-255 94 0
255 139 69 -102 20 -94 0
251 252 253 254 255 0
-256 147 0
-256 157 0
-256 -25 0
-256 145 0
-256 -177 0
256 -147 -157 25 -145 177 0
-257 -151 0
-257 -18 0
-257 187 0
-257 -53 0
-257 -3 0
257 151 18 -187 53 3 0
-258 43 0
-258 151 0
-258 -156 0
-258 -39 0
-258 -30 0
258 -43 -151 156 39 30 0
-259 -182 0
-259 111 0
-259 36 0
-259 -5 0
-259 178 0
259 182 -111 -36 5 -178 0
-260 118 0
-260 88 0
-260 23 0
-260 159 0
-260 -140 0
260 -118 -88 -23 -159 140 0
256 257 258 259 260 0
-261 48 0
-261 -95 0
-261 164 0
-261 171 0
-261 22 0
261 -48 95 -164 -171 -22 0
-262 45 0
-262 116 0
-262 157 0
-262 -186 0
-262 -134 0
262 -45 -116 -157 186 134 0
-263 173 0
-263 -88 0
-263 -50 0
-263 45 0
-263 125 0
263 -173 88 50 -45 -125 0
-264 93 0
-264 -128 0
-264 -165 0
-264 124 0
-264 23 0
264 -93 128 165 -124 -23 0
-265 120 0
-265 149 0
-265 146 0
-265 -176 0
-265 -6 0
265 -120 -149 -146 176 6 0
261 262 263 264 265 0
-266 -1 0
-266 172 0
-266 181 0
-266 -155 0
-266 -57 0
266 1 -172 -181 155 57 0
-267 -110 0
-267 -36 0
-267 -54 0
-267 -180 0
-267 -173 0
267 110 36 54 180 173 0
-268 -28 0
-268 -29 0
-268 181 0
-268 -15 0
-268 -143 0
268 28 29 -181 15 143 0
-269 100 0
-269 -131 0
-269 28 0
-269 -126 0
-269 -105 0
269 -100 131 -28 126 105 0
-270 25 0
-270 26 0
-270 144 0
-270 -104 0
-270 -166 0
270 -25 -26 -144 104 166 0
266 267 268 269 270 0
-271 160 0
-271 -65 0
-271 -109 0
-271 -71 0
-271 -57 0
271 -160 65 109 71 57 0
-272 -20 0
-272 -50 0
-272 -66 0
-272 74 0
-272 -145 0
272 20 50 66 -74 145 0
-273 146 0
-273 -71 0
-273 189 0
-273 -135 0
-273 117 0
273 -146 71 -189 135 -117 0
-274 59 0
-274 75 0
-274 -90 0
-274 -14 0
-274 63 0
274 -59 -75 90 14 -63 0
-275 40 0
-275 44 0
-275 14 0
-275 -146 0
-275 -38 0
275 -40 -44 -14 146 38 0
271 272 273 274 275 0
-276 -160 0
-276 166 0
-276 -48 0
-276 -117 0
-276 94 0
276 160 -166 48 117 -94 0
-277 -89 0
-277 21 0
-277 27 0
-277 30 0
-277 40 0
277 89 -21 -27 -30 -40 0
-278 -141 0
-278 83 0
-278 -181 0
-278 -6 0
-278 -125 0
278 141 -83 181 6 125 0
-279 -23 0
-279 89 0
-279 44 0
-279 -106 0
-279 173 0
279 23 -89 -44 106 -173 0
-280 -83 0
-280 -7 0
-280 -150 0
-280 123 0
-280 118 0
280 83 7 150 -123 -118 0
276 277 278 279 280 0
-281 40 0
-281 71 0
-281 -59 0
-281 179 0
-281 -153 0
281 -40 -71 59 -179 153 0
-282 40 0
-282 72 0
-282 63 0
-282 34 0
-282 -96 0
282 -40 -72 -63 -34 96 0
-283 162 0
-283 13 0
-283 159 0
-283 -123 0
-283 -40 0
283 -162 -13 -159 123 40 0
-284 49 0
-284 -131 0
-284 139 0
-284 89 0
-284 -5 0
284 -49 131 -139 -89 5 0
-285 -25 0
-285 -143 0
-285 73 0
-285 -13 0
-285 42 0
285 25 143 -73 13 -42 0
281 282 283 284 285 0
-286 7 0
-286 140 0
-286 -36 0
-286 -156 0
-286 141 0
286 -7 -140 36 156 -141 0
-287 -15 0
-287 132 0
-287 111 0
-287 -130 0
-287 -159 0
287 15 -132 -111 130 159 0
-288 -69 0
-288 94 0
-288 34 0
-288 -98 0
-288 -96 0
288 69 -94 -34 98 96 0
-289 -130 0
-289 8 0
-289 -132 0
-289 150 0
-289 88 0
289 130 -8 132 -150 -88 0
-290 161 0
-290 139 0
-290 -89 0
-290 -140 0
-290 -185 0
290 -161 -139 89 140 185 0
286 287 288 289 290 0
-291 -46 0
-291 -121 0
-291 116 0
-291 56 0
-291 -182 0
291 46 121 -116 -56 182 0
-292 33 0
-292 152 0
-292 44 0
-292 -39 0
-292 172 0
292 -33 -152 -44 39 -172 0
-293 189 0
-293 129 0
-293 118 0
-293 93 0
-293 33 0
293 -189 -129 -118 -93 -33 0
-294 -35 0
-294 146 0
-294 189 0
-294 73 0
-294 77 0
294 35 -146 -189 -73 -77 0
-295 126 0
-295 116 0
-295 -120 0
-295 92 0
-295 -150 0
295 -126 -116 120 -92 150 0
291 292 293 294 295 0
-296 -101 0
-296 -128 0
-296 -48 0
-296 -3 0
-296 -188 0
296 101 128 48 3 188 0
-297 152 0
-297 14 0
-297 -41 0
-297 -179 0
-297 -55 0
297 -152 -14 41 179 55 0
-298 -169 0
-298 188 0
-298 6 0
-298 69 0
-298 131 0
298 169 -188 -6 -69 -131 0
-299 -53 0
-299 -10 0
-299 -15 0
-299 -118 0
-299 -139 0
299 53 10 15 118 139 0
-300 -81 0
-300 -99 0
-300 148 0
-300 -86 0
-300 -14 0
300 81 99 -148 86 14 0
296 297 298 299 300 0
-301 29 0
-301 92 0
-301 -14 0
-301 -143 0
-301 173 0
301 -29 -92 14 143 -173 0
-302 145 0
-302 3 0
-302 112 0
-302 -75 0
-302 -12 0
302 -145 -3 -112 75 12 0
-303 -3 0
-303 -65 0
-303 -182 0
-303 -95 0
-303 134 0
303 3 65 182 95 -134 0
-304 -46 0
-304 -67 0
-304 86 0
-304 12 0
-304 190 0
304 46 67 -86 -12 -190 0
-305 -178 0
-305 172 0
-305 59 0
-305 -85 0
-305 79 0
305 178 -172 -59 85 -79 0
301 302 303 304 305 0
-306 152 0
-306 56 0
-306 -110 0
-306 15 0
-306 -92 0
306 -152 -56 110 -15 92 0
-307 161 0
-307 -81 0
-307 181 0
-307 20 0
-307 -175 0
307 -161 81 -181 -20 175 0
-308 178 0
-308 -131 0
-308 -149 0
-308 76 0
-308 185 0
308 -178 131 149 -76 -185 0
-309 58 0
-309 -40 0
-309 14 0
-309 -189 0
-309 -150 0
309 -58 40 -14 189 150 0
-310 18 0
-310 21 0
-310 42 0
-310 -45 0
-310 41 0
310 -18 -21 -42 45 -41 0
306 307 308 309 310 0
-311 60 0
-311 -17 0
-311 35 0
-311 -166 0
-311 -79 0
311 -60 17 -35 166 79 0
-312 85 0
-312 -153 0
-312 -63 0
-312 58 0
-312 -19 0
312 -85 153 63 -58 19 0
-313 106 0
-313 104 0
-313 -32 0
-313 184 0
-313 139 0
313 -106 -104 32 -184 -139 0
-314 -21 0
-314 -147 0
-314 89 0
-314 62 0
-314 104 0
314 21 147 -89 -62 -104 0
-315 -107 0
-315 -95 0
-315 -186 0
-315 -101 0
-315 -139 0
315 107 95 186 101 139 0
311 312 313 314 315 0
-316 21 0
-316 5 0
-316 -140 0
-316 -79 0
-316 93 0
316 -21 -5 140 79 -93 0
-317 -96 0
-317 -62 0
-317 -162 0
-317 -130 0
-317 55 0
317 96 62 162 130 -55 0
-318 21 0
-318 139 0
-318 183 0
-318 102 0
-318 104 0
318 -21 -139 -183 -102 -104 0
-319 -38 0
-319 -187 0
-319 97 0
-319 -170 0
-319 -69 0
319 38 187 -97 170 69 0
-320 -172 0
-320 106 0
-320 174 0
-320 -182 0
-320 -126 0
320 172 -106 -174 182 126 0
316 317 318 319 320 0
-321 -154 0
-321 85 0
-321 65 0
-321 153 0
-321 -55 0
321 154 -85 -65 -153 55 0
-322 -12 0
-322 -40 0
-322 62 0
-322 -126 0
-322 30 0
322 12 40 -62 126 -30 0
-323 52 0
-323 -20 0
-323 -89 0
-323 41 0
-323 95 0
323 -52 20 89 -41 -95 0
-324 64 0
-324 -154 0
-324 -7 0
-324 -20 0
-324 -84 0
324 -64 154 7 20 84 0
-325 -161 0
-325 106 0
-325 127 0
-325 -143 0
-325 -166 0
325 161 -106 -127 143 166 0
321 322 323 324 325 0
-326 -96 0
-326 -106 0
-326 176 0
-326 -127 0
-326 74 0
326 96 106 -176 127 -74 0
-327 55 0
-327 -97 0
-327 -81 0
-327 135 0
-327 -189 0
327 -55 97 81 -135 189 0
-328 131 0
-328 -62 0
-328 -174 0
-328 -182 0
-328 56 0
328 -131 62 174 182 -56 0
-329 -78 0
-329 139 0
-329 39 0
-329 58 0
-329 -64 0
329 78 -139 -39 -58 64 0
-330 -66 0
-330 15 0
-330 38 0
-330 -62 0
-330 41 0
330 66 -15 -38 62 -41 0
326 327 328 329 330 0
-331 -126 0
-331 -111 0
-331 -114 0
-331 -50 0
-331 136 0
331 126 111 114 50 -136 0
-332 -186 0
-332 -160 0
-332 115 0
-332 136 0
-332 126 0
332 186 160 -115 -136 -126 0
-333 4 0
-333 -94 0
-333 -41 0
-333 -27 0
-333 -82 0
333 -4 94 41 27 82 0
-334 -101 0
-334 112 0
-334 62 0
-334 -106 0
-334 -81 0
334 101 -112 -62 106 81 0
-335 180 0
-335 130 0
-335 -4 0
-335 -126 0
-335 62 0
335 -180 -130 4 126 -62 0
331 332 333 334 335 0
-336 158 0
-336 98 0
-336 162 0
-336 -78 0
-336 25 0
336 -158 -98 -162 78 -25 0
-337 185 0
-337 -187 0
-337 125 0
-337 17 0
-337 -98 0
337 -185 187 -125 -17 98 0
-338 -31 0
-338 -161 0
-338 30 0
-338 -118 0
-338 -137 0
338 31 161 -30 118 137 0
-339 -69 0
-339 -39 0
-339 -28 0
-339 -178 0
-339 -48 0
339 69 39 28 178 48 0
-340 -141 0
-340 181 0
-340 22 0
-340 173 0
-340 -87 0
340 141 -181 -22 -173 87 0
336 337 338 339 340 0
-341 -97 0
-341 79 0
-341 -58 0
-341 -180 0
-341 -122 0
341 97 -79 58 180 122 0
-342 -128 0
-342 -53 0
-342 96 0
-342 -74 0
-342 -67 0
342 128 53 -96 74 67 0
-343 18 0
-343 -105 0
-343 169 0
-343 -183 0
-343 -139 0
343 -18 105 -169 183 139 0
-344 156 0
-344 -168 0
-344 179 0
-344 -137 0
-344 -184 0
344 -156 168 -179 137 184 0
-345 39 0
-345 92 0
-345 -17 0
-345 -91 0
-345 -109 0
345 -39 -92 17 91 109 0
341 342 343 344 345 0
-346 -153 0
-346 163 0
-346 71 0
-346 13 0
-346 160 0
346 153 -163 -71 -13 -160 0
-347 11 0
-347 109 0
-347 -96 0
-347 79 0
-347 41 0
347 -11 -109 96 -79 -41 0
-348 158 0
-348 100 0
-348 -14 0
-348 76 0
-348 -71 0
348 -158 -100 14 -76 71 0
-349 -157 0
-349 -19 0
-349 -15 0
-349 162 0
-349 135 0
349 157 19 15 -162 -135 0
-350 -45 0
-350 -67 0
-350 81 0
-350 -7 0
-350 3 0
350 45 67 -81 7 -3 0
346 347 348 349 350 0
-351 57 0
-351 -116 0
-351 177 0
-351 115 0
-351 -129 0
351 -57 116 -177 -115 129 0
-352 -60 0
-352 36 0
-352 -93 0
-352 -30 0
-352 12 0
352 60 -36 93 30 -12 0
-353 -117 0
-353 52 0
-353 20 0
-353 -180 0
-353 169 0
353 117 -52 -20 180 -169 0
-354 157 0
-354 151 0
-354 131 0
-354 -125 0
-354 -64 0
354 -157 -151 -131 125 64 0
-355 -95 0
-355 -168 0
-355 158 0
-355 22 0
-355 89 0
355 95 168 -158 -22 -89 0
351 352 353 354 355 0
-356 7 0
-356 71 0
-356 138 0
-356 160 0
-356 62 0
356 -7 -71 -138 -160 -62 0
-357 -134 0
-357 -143 0
-357 151 0
-357 127 0
-357 -130 0
357 134 143 -151 -127 130 0
-358 54 0
-358 157 0
-358 65 0
-358 -11 0
-358 118 0
358 -54 -157 -65 11 -118 0
-359 -74 0
-359 34 0
-359 123 0
-359 158 0
-359 68 0
359 74 -34 -123 -158 -68 0
-360 10 0
-360 69 0
-360 -3 0
-360 36 0
-360 -35 0
360 -10 -69 3 -36 35 0
356 357 358 359 360 0
-361 -152 0
-361 -33 0
-361 17 0
-361 155 0
-361 -10 0
361 152 33 -17 -155 10 0
-362 -16 0
-362 178 0
-362 -32 0
-362 -171 0
-362 -181 0
362 16 -178 32 171 181 0
-363 -165 0
-363 -58 0
-363 -180 0
-363 -47 0
-363 141 0
363 165 58 180 47 -141 0
-364 -45 0
-364 -58 0
-364 99 0
-364 168 0
-364 51 0
364 45 58 -99 -168 -51 0
-365 78 0
-365 32 0
-365 95 0
-365 -171 0
-365 -66 0
365 -78 -32 -95 171 66 0
361 362 363 364 365 0
-366 -67 0
-366 130 0
-366 185 0
-366 -12 0
-366 -117 0
366 67 -130 -185 12 117 0
-367 30 0
-367 10 0
-367 63 0
-367 -166 0
-367 141 0
367 -30 -10 -63 166 -141 0
-368 63 0
-368 -77 0
-368 91 0
-368 151 0
-368 -66 0
368 -63 77 -91 -151 66 0
-369 -188 0
-369 -108 0
-369 -145 0
-369 133 0
-369 40 0
369 188 108 145 -133 -40 0
-370 -118 0
-370 127 0
-370 -101 0
-370 3 0
-370 -119 0
370 118 -127 101 -3 119 0
366 367 368 369 370 0
-371 64 0
-371 -147 0
-371 114 0
-371 -135 0
-371 -187 0
371 -64 147 -114 135 187 0
-372 -62 0
-372 77 0
-372 57 0
-372 24 0
-372 9 0
372 62 -77 -57 -24 -9 0
-373 -128 0
-373 -182 0
-373 189 0
-373 -86 0
-373 160 0
373 128 182 -189 86 -160 0
-374 88 0
-374 82 0
-374 -162 0
-374 65 0
-374 -180 0
374 -88 -82 162 -65 180 0
-375 80 0
-375 14 0
-375 83 0
-375 -86 0
-375 11 0
375 -80 -14 -83 86 -11 0
371 372 373 374 375 0
-376 70 0
-376 69 0
-376 -44 0
-376 -88 0
-376 107 0
376 -70 -69 44 88 -107 0
-377 176 0
-377 68 0
-377 89 0
-377 -7 0
-377 -12 0
377 -176 -68 -89 7 12 0
-378 -21 0
-378 140 0
-378 19 0
-378 9 0
-378 -178 0
378 21 -140 -19 -9 178 0
-379 -15 0
-379 177 0
-379 61 0
-379 -78 0
-379 69 0
379 15 -177 -61 78 -69 0
-380 46 0
-380 160 0
-380 -11 0
-380 184 0
-380 111 0
380 -46 -160 11 -184 -111 0
376 377 378 379 380 0
-381 -166 0
-381 147 0
-381 39 0
-381 98 0
-381 -49 0
381 166 -147 -39 -98 49 0
-382 -74 0
-382 -112 0
-382 122 0
-382 -105 0
-382 -98 0
382 74 112 -122 105 98 0
-383 42 0
-383 -35 0
-383 16 0
-383 -54 0
-383 -131 0
383 -42 35 -16 54 131 0
-384 42 0
-384 -41 0
-384 24 0
-384 -34 0
-384 -163 0
384 -42 41 -24 34 163 0
-385 -78 0
-385 146 0
-385 -134 0
-385 175 0
-385 91 0
385 78 -146 134 -175 -91 0
381 382 383 384 385 0
-386 -146 0
-386 115 0
-386 76 0
-386 -87 0
-386 -83 0
386 146 -115 -76 87 83 0
-387 -189 0
-387 187 0
-387 -133 0
-387 64 0
-387 45 0
387 189 -187 133 -64 -45 0
-388 177 0
-388 -85 0
-388 100 0
-388 82 0
-388 -157 0
388 -177 85 -100 -82 157 0
-389 110 0
-389 169 0
-389 47 0
-389 139 0
-389 64 0
389 -110 -169 -47 -139 -64 0
-390 74 0
-390 -166 0
-390 -33 0
-390 -187 0
-390 70 0
390 -74 166 33 187 -70 0
386 387 388 389 390 0
-391 -37 0
-391 129 0
-391 -62 0
-391 46 0
-391 -98 0
391 37 -129 62 -46 98 0
-392 142 0
-392 -174 0
-392 45 0
-392 144 0
-392 -13 0
392 -142 174 -45 -144 13 0
-393 -10 0
-393 -89 0
-393 -5 0
-393 -31 0
-393 -166 0
393 10 89 5 31 166 0
-394 98 0
-394 91 0
-394 174 0
-394 -79 0
-394 10 0
394 -98 -91 -174 79 -10 0
-395 -35 0
-395 78 0
-395 -130 0
-395 -72 0
-395 38 0
395 35 -78 130 72 -38 0
391 392 393 394 395 0
-396 46 0
-396 -137 0
-396 -60 0
-396 -71 0
-396 -167 0
396 -46 137 60 71 167 0
-397 -1 0
-397 -127 0
-397 -145 0
-397 143 0
-397 166 0
397 1 127 145 -143 -166 0
-398 -154 0
-398 116 0
-398 137 0
-398 -66 0
-398 141 0
398 154 -116 -137 66 -141 0
-399 42 0
-399 -52 0
-399 -23 0
-399 8 0
-399 49 0
399 -42 52 23 -8 -49 0
-400 10 0
-400 -169 0
-400 188 0
-400 117 0
-400 -177 0
400 -10 169 -188 -117 177 0
396 397 398 399 400 0
-401 102 0
-401 108 0
-401 65 0
-401 136 0
-401 -111 0
401 -102 -108 -65 -136 111 0
-402 -97 0
-402 -108 0
-402 86 0
-402 -132 0
-402 -96 0
402 97 108 -86 132 96 0
-403 -73 0
-403 -169 0
-403 106 0
-403 19 0
-403 -84 0
403 73 169 -106 -19 84 0
-404 -93 0
-404 181 0
-404 -115 0
-404 -162 0
-404 -96 0
404 93 -181 115 162 96 0
-405 -120 0
-405 -134 0
-405 20 0
-405 -124 0
-405 6 0
405 120 134 -20 124 -6 0
401 402 403 404 405 0
-406 152 0
-406 -38 0
-406 -184 0
-406 -121 0
-406 -78 0
406 -152 38 184 121 78 0
-407 73 0
-407 -107 0
-407 -56 0
-407 62 0
-407 9 0
407 -73 107 56 -62 -9 0
-408 8 0
-408 -179 0
-408 -67 0
-408 70 0
-408 143 0
408 -8 179 67 -70 -143 0
-409 -98 0
-409 -173 0
-409 -62 0
-409 25 0
-409 -70 0
409 98 173 62 -25 70 0
-410 -59 0
-410 -84 0
-410 122 0
-410 184 0
-410 -40 0
410 59 84 -122 -184 40 0
406 407 408 409 410 0
-411 32 0
-411 -190 0
-411 181 0
-411 -103 0
-411 -34 0
411 -32 190 -181 103 34 0
-412 -103 0
-412 35 0
-412 -48 0
-412 -85 0
-412 155 0
412 103 -35 48 85 -155 0
-413 158 0
-413 -4 0
-413 -137 0
-413 183 0
-413 -45 0
413 -158 4 137 -183 45 0
-414 77 0
-414 -131 0
-414 -136 0
-414 -158 0
-414 188 0
414 -77 131 136 158 -188 0
-415 146 0
-415 -179 0
-415 34 0
-415 35 0
-415 92 0
415 -146 179 -34 -35 -92 0
411 412 413 414 415 0
-416 129 0
-416 -20 0
-416 -155 0
-416 174 0
-416 -22 0
416 -129 20 155 -174 22 0
-417 92 0
-417 -189 0
-417 133 0
-417 -188 0
-417 -177 0
417 -92 189 -133 188 177 0
-418 58 0
-418 -178 0
-418 13 0
-418 -4 0
-418 111 0
418 -58 178 -13 4 -111 0
-419 38 0
-419 -185 0
-419 -35 0
-419 88 0
-419 21 0
419 -38 185 35 -88 -21 0
-420 -175 0
-420 -48 0
-420 102 0
-420 40 0
-420 77 0
420 175 48 -102 -40 -77 0
416 417 418 419 420 0
-421 4 0
-421 -82 0
-421 1 0
-421 -119 0
-421 -50 0
421 -4 82 -1 119 50 0
-422 115 0
-422 -119 0
-422 35 0
-422 -130 0
-422 69 0
422 -115 119 -35 130 -69 0
-423 63 0
-423 -162 0
-423 24 0
-423 -46 0
-423 4 0
423 -63 162 -24 46 -4 0
-424 -159 0
-424 -38 0
-424 -131 0
-424 157 0
-424 18 0
424 159 38 131 -157 -18 0
-425 -103 0
-425 73 0
-425 72 0
-425 -5 0
-425 99 0
425 103 -73 -72 5 -99 0
421 422 423 424 425 0
-426 190 0
-426 170 0
-426 81 0
-426 63 0
-426 140 0
426 -190 -170 -81 -63 -140 0
-427 101 0
-427 130 0
-427 -164 0
-427 62 0
-427 114 0
427 -101 -130 164 -62 -114 0
-428 167 0
-428 19 0
-428 48 0
-428 49 0
-428 115 0
428 -167 -19 -48 -49 -115 0
-429 -53 0
-429 -133 0
-429 -30 0
-429 -105 0
-429 98 0
429 53 133 30 105 -98 0
-430 -143 0
-430 103 0
-430 -127 0
-430 -30 0
-430 174 0
430 143 -103 127 30 -174 0
426 427 428 429 430 0
